data/CVRPLIB/Vrp-Set-XML100/instances/XML100_2214_23.vrp
NAME : XML100_2214_23
COMMENT : Generated by Queiroga, Sadykov, Uchoa, and Vidal (2021)
TYPE : CVRP
DIMENSION : 101
EDGE_WEIGHT_TYPE : EUC_2D
CAPACITY : 15
NODE_COORD_SECTION
1    500  500 
2    120  804 
3    810  186 
4    656  946 
5    76   291 
6    829  161 
7    117  182 
8    698  800 
9    768  190 
10   253  518 
11   266  106 
12   565  951 
13   702  740 
14   736  977 
15   936  72  
16   800  170 
17   990  658 
18   328  761 
19   118  290 
20   891  149 
21   156  168 
22   779  153 
23   228  481 
24   137  751 
25   32   196 
26   65   265 
27   982  454 
28   837  169 
29   120  818 
30   881  224 
31   683  950 
32   739  831 
33   115  898 
34   868  153 
35   617  805 
36   975  539 
37   33   803 
38   777  321 
39   998  171 
40   988  439 
41   549  914 
42   134  246 
43   229  746 
44   22   512 
45   734  781 
46   742  134 
47   25   366 
48   877  564 
49   592  874 
50   676  114 
51   86   401 
52   161  113 
53   839  62  
54   982  389 
55   701  920 
56   657  823 
57   713  869 
58   128  789 
59   119  363 
60   73   374 
61   98   449 
62   728  908 
63   987  392 
64   623  910 
65   648  797 
66   39   276 
67   51   305 
68   665  844 
69   711  783 
70   652  896 
71   545  560 
72   761  857 
73   484  706 
74   284  710 
75   585  782 
76   641  983 
77   750  844 
78   596  870 
79   819  158 
80   700  741 
81   61   711 
82   670  820 
83   98   259 
84   920  844 
85   885  198 
86   182  159 
87   660  790 
88   721  894 
89   74   589 
90   858  246 
91   724  669 
92   127  155 
93   166  748 
94   22   609 
95   47   271 
96   52   208 
97   129  803 
98   647  838 
99   32   230 
100  31   788 
101  79   122 
DEMAND_SECTION
1    0   
2    1   
3    1   
4    1   
5    1   
6    1   
7    1   
8    1   
9    1   
10   1   
11   1   
12   1   
13   1   
14   1   
15   1   
16   1   
17   1   
18   1   
19   1   
20   1   
21   1   
22   1   
23   1   
24   1   
25   1   
26   1   
27   1   
28   1   
29   1   
30   1   
31   1   
32   1   
33   1   
34   1   
35   1   
36   1   
37   1   
38   1   
39   1   
40   1   
41   1   
42   1   
43   1   
44   1   
45   1   
46   1   
47   1   
48   1   
49   1   
50   1   
51   1   
52   1   
53   1   
54   1   
55   1   
56   1   
57   1   
58   1   
59   1   
60   1   
61   1   
62   1   
63   1   
64   1   
65   1   
66   1   
67   1   
68   1   
69   1   
70   1   
71   1   
72   1   
73   1   
74   1   
75   1   
76   1   
77   1   
78   1   
79   1   
80   1   
81   1   
82   1   
83   1   
84   1   
85   1   
86   1   
87   1   
88   1   
89   1   
90   1   
91   1   
92   1   
93   1   
94   1   
95   1   
96   1   
97   1   
98   1   
99   1   
100  1   
101  1   
DEPOT_SECTION
1
-1
EOF
