data/CVRPLIB/Vrp-Set-XML100/solutions/XML100_2214_23.sol
Route #1: 17 73 42 92 23 57 96 1 28 32 36 99 80 93 88
Route #2: 10 51 85 20 6 91 100 24 95 98 65 94 25 82 41
Route #3: 9 22 43 60 50 59 46 66 4 18 58
Route #4: 37 89 29 84 19 33 27 5 78 2 15 21 45 49
Route #5: 70 90 12 79 44 68 7 81 67 97 55 86 64 34 74
Route #6: 31 76 71 83 16 47 35 26 39 62 53 38 14 52 8
Route #7: 72 40 11 75 3 30 13 54 61 87 56 69 63 48 77
Cost 10106
